0000000000000000
0000000000000000
0010000000010000
0011000000010000
0001100000010000
0000110000010000
0000011000110000
0000011101100000
0000110111000000
0001100011000000
0001000001100000
0001000000110000
0001000000011100
0001000000001110
0000000000000000
0000000000000000
